Please solve the following SAT Problem encoded in DIMACS format, only return a single solution assignment without explanations, if there is any: 
p cnf 10 70
-3 -7 -5 0
10 9 -1 0
-6 2 -9 0
-5 -6 -3 0
10 2 -3 0
8 9 4 0
-2 -5 -9 0
-6 -5 -10 0
-3 -10 9 0
2 -1 9 0
-5 8 10 0
4 -3 9 0
1 -10 -6 0
2 -1 -3 0
-6 -2 -1 0
-1 8 2 0
2 4 10 0
7 -10 4 0
-6 10 9 0
-10 -5 2 0
-1 5 2 0
4 -2 -1 0
-5 10 -7 0
-6 8 10 0
-3 -5 8 0
2 10 9 0
8 10 9 0
-5 -6 4 0
-6 2 -1 0
9 2 -3 0
4 10 -1 0
4 10 -5 0
9 2 10 0
-3 2 -5 0
-9 -5 -3 0
7 -1 2 0
-3 -6 2 0
3 9 -5 0
8 4 6 0
10 9 -3 0
-8 2 9 0
10 -2 -6 0
-6 -1 -4 0
8 9 -6 0
9 -7 -5 0
6 2 1 0
9 7 4 0
4 -5 -1 0
2 -7 -6 0
2 -1 -6 0
-1 -6 -3 0
2 1 -10 0
2 4 5 0
10 7 2 0
-6 -5 -4 0
4 -6 -10 0
-1 -6 -9 0
-1 10 7 0
2 10 4 0
2 9 7 0
10 8 4 0
10 4 -8 0
-5 -10 8 0
-1 4 -5 0
-6 -3 -1 0
-1 -4 9 0
-1 9 -3 0
-4 2 -6 0
4 -9 10 0
-6 7 9 0

